<number of tasks>
58

<cycle time>
62

<task times>
1 10
2 53
3 41
4 36
5 35
6 17
7 34
8 23
9 14
10 52
11 33
12 34
13 12
14 52
15 12
16 33
17 44
18 7
19 15
20 13
21 29
22 37
23 43
24 23
25 24
26 9
27 16
28 12
29 26
30 22
31 51
32 47
33 34
34 23
35 12
36 52
37 12
38 33
39 44
40 7
41 15
42 13
43 29
44 37
45 43
46 23
47 24
48 9
49 16
50 12
51 26
52 12
53 52
54 12
55 33
56 44
57 7
58 15

<precedence relations>
1,9
2,25
3,21
3,22
4,10
5,36
6,23
6,24
7,43
8,44
9,11
11,13
11,14
11,15
12,17
13,17
14,17
15,17
16,18
17,20
18,19
19,23
20,21
20,25
21,26
21,44
22,27
23,31
24,31
25,38
26,29
27,30
28,32
28,33
29,31
30,34
31,36
32,45
33,35
34,36
35,43
36,37
36,38
37,39
37,40
37,41
38,52
39,43
40,43
41,42
42,43
43,45
44,45
45,46
45,48
45,49
46,47
46,50
47,51
48,55
49,58
50,58
51,52
52,53
53,54
54,55
54,56
55,57
56,57
57,58

<setup times forward>
1,2:5
1,3:7
1,4:10
1,5:24
1,6:7
1,7:7
1,8:10
1,9:14
1,12:14
1,16:19
1,18:5
1,19:14
1,22:22
1,23:3
1,24:22
1,27:12
1,28:14
1,30:7
1,32:14
1,33:12
1,34:22
1,35:12
2,1:5
2,3:2
2,4:5
2,5:19
2,6:2
2,7:2
2,8:5
2,9:9
2,10:5
2,11:3
2,12:9
2,13:3
2,14:11
2,15:3
2,16:14
2,17:6
2,19:9
2,20:6
2,21:14
2,22:17
2,23:2
2,24:17
2,25:3
2,26:2
2,27:7
2,28:9
2,29:19
2,30:2
2,31:4
2,32:9
2,33:7
2,34:17
2,35:7
2,36:8
2,37:3
2,39:2
2,40:3
2,41:3
2,42:2
2,43:2
2,44:17
2,45:14
2,46:1
2,47:8
2,48:10
2,49:1
2,50:1
2,51:8
3,1:7
3,2:2
3,4:3
3,5:17
3,8:3
3,9:7
3,10:7
3,11:1
3,12:7
3,13:1
3,14:9
3,15:1
3,16:12
3,17:4
3,18:2
3,19:7
3,20:4
3,21:12
3,22:15
3,23:4
3,24:15
3,25:1
3,28:7
3,32:7
3,33:5
3,35:5
4,1:10
4,2:5
4,3:3
4,5:14
4,6:3
4,7:3
4,9:4
4,10:10
4,11:2
4,12:4
4,13:2
4,14:6
4,15:2
4,16:9
4,17:1
4,18:5
4,19:4
4,20:1
4,21:9
4,22:12
4,23:7
4,24:12
4,25:2
4,26:7
4,27:2
4,28:4
4,29:14
4,30:3
4,31:9
4,32:4
4,33:2
4,34:12
4,35:2
4,36:3
4,37:2
4,38:7
4,39:7
4,40:2
4,41:2
4,42:7
4,43:7
4,44:12
4,45:9
4,46:6
4,47:3
4,48:5
4,49:6
4,50:6
4,51:3
4,52:3
4,53:5
4,54:10
4,55:15
4,56:10
4,57:15
4,58:15
5,1:24
5,2:19
5,3:17
5,4:14
5,6:17
5,7:17
5,8:14
5,9:10
5,10:24
5,11:16
5,12:10
5,13:16
5,14:8
5,15:16
5,16:5
5,17:13
5,18:19
5,19:10
5,20:13
5,21:5
5,22:2
5,23:21
5,24:2
5,25:16
5,26:21
5,27:12
5,28:10
5,30:17
5,31:23
5,32:10
5,33:12
5,34:2
5,35:12
5,36:11
5,44:2
6,1:7
6,2:2
6,4:3
6,5:17
6,8:3
6,9:7
6,10:7
6,11:1
6,12:7
6,13:1
6,14:9
6,15:1
6,16:12
6,17:4
6,18:2
6,19:7
6,20:4
6,21:12
6,22:15
6,23:4
6,24:15
6,25:1
6,26:4
6,27:5
6,28:7
6,29:17
6,32:7
6,33:5
6,34:15
6,35:5
6,44:15
7,1:7
7,2:2
7,4:3
7,5:17
7,8:3
7,9:7
7,10:7
7,11:1
7,12:7
7,13:1
7,14:9
7,15:1
7,16:12
7,17:4
7,18:2
7,19:7
7,20:4
7,21:12
7,22:15
7,23:4
7,24:15
7,25:1
7,26:4
7,27:5
7,28:7
7,29:17
7,31:6
7,32:7
7,33:5
7,34:15
7,35:5
7,36:6
7,37:1
7,38:4
7,39:4
7,40:1
7,41:1
7,42:4
7,43:4
7,44:15
8,1:10
8,2:5
8,3:3
8,5:14
8,6:3
8,7:3
8,9:4
8,10:10
8,11:2
8,12:4
8,13:2
8,14:6
8,15:2
8,16:9
8,17:1
8,18:5
8,19:4
8,20:1
8,21:9
8,22:12
8,23:7
8,24:12
8,25:2
8,26:7
8,27:2
8,28:4
8,29:14
8,30:3
8,31:9
8,32:4
8,33:2
8,34:12
8,35:2
8,36:3
8,37:2
8,38:7
8,39:7
8,40:2
8,41:2
8,42:7
8,43:7
8,44:12
9,2:9
9,3:7
9,4:4
9,5:10
9,6:7
9,7:7
9,8:4
9,10:14
9,11:6
9,16:5
9,18:9
9,22:8
9,23:11
9,24:8
9,27:2
9,30:7
9,33:2
9,34:8
9,35:2
10,2:5
10,3:7
10,5:24
10,6:7
10,7:7
10,8:10
10,9:14
10,11:8
10,12:14
10,13:8
10,14:16
10,15:8
10,16:19
10,17:11
10,18:5
10,19:14
10,20:11
10,21:19
10,22:22
10,23:3
10,24:22
10,25:8
10,26:3
10,27:12
10,28:14
10,29:24
10,30:7
10,31:1
10,32:14
10,33:12
10,34:22
10,35:12
10,36:13
10,37:8
10,38:3
10,39:3
10,40:8
10,41:8
10,42:3
10,43:3
10,44:22
10,45:19
10,46:4
10,47:13
10,48:15
10,49:4
10,50:4
10,51:13
10,52:13
10,53:15
10,54:20
10,55:25
10,56:20
10,57:25
10,58:25
11,2:3
11,3:1
11,4:2
11,5:16
11,6:1
11,7:1
11,8:2
11,10:8
11,12:6
11,14:8
11,16:11
11,18:3
11,19:6
11,22:14
11,23:5
11,24:14
11,27:4
11,28:6
11,30:1
11,32:6
11,33:4
11,34:14
11,35:4
12,1:14
12,2:9
12,3:7
12,4:4
12,5:10
12,6:7
12,7:7
12,8:4
12,10:14
12,11:6
12,13:6
12,14:2
12,15:6
12,16:5
12,17:3
12,18:9
12,22:8
12,23:11
12,24:8
12,27:2
12,30:7
12,33:2
12,34:8
12,35:2
13,2:3
13,3:1
13,4:2
13,5:16
13,6:1
13,7:1
13,8:2
13,10:8
13,12:6
13,14:8
13,16:11
13,17:3
13,18:3
13,19:6
13,22:14
13,23:5
13,24:14
13,27:4
13,28:6
13,30:1
13,32:6
13,33:4
13,34:14
13,35:4
14,2:11
14,3:9
14,4:6
14,5:8
14,6:9
14,7:9
14,8:6
14,10:16
14,12:2
14,13:8
14,15:8
14,16:3
14,17:5
14,18:11
14,19:2
14,22:6
14,23:13
14,24:6
14,27:4
14,28:2
14,30:9
14,32:2
14,33:4
14,34:6
14,35:4
15,2:3
15,3:1
15,4:2
15,5:16
15,6:1
15,7:1
15,8:2
15,10:8
15,12:6
15,14:8
15,16:11
15,17:3
15,18:3
15,19:6
15,22:14
15,23:5
15,24:14
15,27:4
15,28:6
15,30:1
15,32:6
15,33:4
15,34:14
15,35:4
16,1:19
16,2:14
16,3:12
16,4:9
16,5:5
16,6:12
16,7:12
16,8:9
16,9:5
16,10:19
16,11:11
16,12:5
16,13:11
16,14:3
16,15:11
16,17:8
16,18:14
16,20:8
16,22:3
16,24:3
16,25:11
16,26:16
16,27:7
16,28:5
16,29:5
16,30:12
16,32:5
16,33:7
16,34:3
16,35:7
16,44:3
17,2:6
17,3:4
17,4:1
17,5:13
17,6:4
17,7:4
17,8:1
17,10:11
17,16:8
17,18:6
17,19:3
17,22:11
17,23:8
17,24:11
17,27:1
17,28:3
17,30:4
17,32:3
17,33:1
17,34:11
17,35:1
18,1:5
18,3:2
18,4:5
18,5:19
18,6:2
18,7:2
18,8:5
18,9:9
18,10:5
18,11:3
18,12:9
18,13:3
18,14:11
18,15:3
18,17:6
18,19:9
18,20:6
18,21:14
18,22:17
18,24:17
18,25:3
18,26:2
18,27:7
18,28:9
18,29:19
18,30:2
18,32:9
18,33:7
18,34:17
18,35:7
18,44:17
19,1:14
19,2:9
19,3:7
19,4:4
19,5:10
19,6:7
19,7:7
19,8:4
19,10:14
19,11:6
19,13:6
19,14:2
19,15:6
19,17:3
19,20:3
19,21:5
19,22:8
19,23:11
19,24:8
19,25:6
19,26:11
19,27:2
19,29:10
19,30:7
19,33:2
19,34:8
19,35:2
19,44:8
20,2:6
20,3:4
20,4:1
20,5:13
20,6:4
20,7:4
20,8:1
20,10:11
20,16:8
20,18:6
20,19:3
20,21:8
20,22:11
20,23:8
20,24:11
20,25:3
20,27:1
20,28:3
20,30:4
20,32:3
20,33:1
20,34:11
20,35:1
21,2:14
21,4:9
21,5:5
21,6:12
21,7:12
21,8:9
21,10:19
21,18:14
21,19:5
21,22:3
21,23:16
21,24:3
21,25:11
21,26:16
21,27:7
21,28:5
21,30:12
21,32:5
21,33:7
21,34:3
21,35:7
21,44:3
22,1:22
22,2:17
22,4:12
22,5:2
22,6:15
22,7:15
22,8:12
22,9:8
22,10:22
22,11:14
22,12:8
22,13:14
22,14:6
22,15:14
22,16:3
22,17:11
22,18:17
22,19:8
22,20:11
22,21:3
22,23:19
22,25:14
22,26:19
22,27:10
22,28:8
22,29:2
22,31:21
22,32:8
22,33:10
22,35:10
23,1:3
23,2:2
23,3:4
23,4:7
23,5:21
23,7:4
23,8:7
23,9:11
23,10:3
23,11:5
23,12:11
23,13:5
23,14:13
23,15:5
23,17:8
23,20:8
23,21:16
23,22:19
23,24:19
23,25:5
23,27:9
23,28:11
23,29:21
23,30:4
23,31:2
23,32:11
23,33:9
23,34:19
23,35:9
23,44:19
24,1:22
24,2:17
24,3:15
24,4:12
24,5:2
24,7:15
24,8:12
24,9:8
24,10:22
24,11:14
24,12:8
24,13:14
24,14:6
24,15:14
24,16:3
24,17:11
24,18:17
24,19:8
24,20:11
24,21:3
24,23:19
24,25:14
24,26:19
24,27:10
24,28:8
24,29:2
24,30:15
24,31:21
24,32:8
24,33:10
24,35:10
25,3:1
25,4:2
25,5:16
25,6:1
25,7:1
25,8:2
25,10:8
25,16:11
25,18:3
25,19:6
25,21:11
25,22:14
25,23:5
25,24:14
25,26:5
25,27:4
25,28:6
25,29:16
25,30:1
25,31:7
25,32:6
25,33:4
25,34:14
25,35:4
25,36:5
25,38:5
25,39:5
25,42:5
25,43:5
25,44:14
25,45:11
25,46:4
25,47:5
25,48:7
25,49:4
25,50:4
25,51:5
26,2:2
26,4:7
26,5:21
26,6:4
26,7:4
26,8:7
26,10:3
26,16:16
26,18:2
26,19:11
26,22:19
26,24:19
26,25:5
26,27:9
26,28:11
26,29:21
26,30:4
26,32:11
26,33:9
26,34:19
26,35:9
26,44:19
27,1:12
27,2:7
27,4:2
27,5:12
27,6:5
27,7:5
27,8:2
27,9:2
27,10:12
27,11:4
27,12:2
27,13:4
27,14:4
27,15:4
27,16:7
27,17:1
27,18:7
27,19:2
27,20:1
27,21:7
27,23:9
27,24:10
27,25:4
27,26:9
27,28:2
27,29:12
27,30:5
27,31:11
27,32:2
27,44:10
28,1:14
28,2:9
28,3:7
28,4:4
28,5:10
28,6:7
28,7:7
28,8:4
28,10:14
28,11:6
28,13:6
28,14:2
28,15:6
28,16:5
28,17:3
28,18:9
28,20:3
28,21:5
28,22:8
28,23:11
28,24:8
28,25:6
28,26:11
28,27:2
28,29:10
28,30:7
28,31:13
28,33:2
28,34:8
28,36:1
28,37:6
28,38:11
28,39:11
28,40:6
28,41:6
28,42:11
28,44:8
29,2:19
29,4:14
29,6:17
29,7:17
29,8:14
29,10:24
29,16:5
29,18:19
29,19:10
29,22:2
29,23:21
29,24:2
29,25:16
29,27:12
29,28:10
29,30:17
29,31:23
29,32:10
29,33:12
29,34:2
29,35:12
29,44:2
30,1:7
30,2:2
30,4:3
30,5:17
30,8:3
30,9:7
30,10:7
30,11:1
30,12:7
30,13:1
30,14:9
30,15:1
30,16:12
30,17:4
30,18:2
30,19:7
30,20:4
30,21:12
30,23:4
30,24:15
30,25:1
30,26:4
30,28:7
30,29:17
30,31:6
30,32:7
30,33:5
30,34:15
30,35:5
30,44:15
31,2:4
31,4:9
31,5:23
31,7:6
31,8:9
31,10:1
31,22:21
31,25:7
31,27:11
31,28:13
31,30:6
31,32:13
31,33:11
31,34:21
31,35:11
31,36:12
31,44:21
32,1:14
32,2:9
32,3:7
32,4:4
32,5:10
32,6:7
32,7:7
32,8:4
32,10:14
32,11:6
32,13:6
32,14:2
32,15:6
32,16:5
32,17:3
32,18:9
32,20:3
32,21:5
32,22:8
32,23:11
32,24:8
32,25:6
32,26:11
32,27:2
32,29:10
32,30:7
32,31:13
32,33:2
32,34:8
32,35:2
32,36:1
32,37:6
32,38:11
32,39:11
32,40:6
32,41:6
32,42:11
32,43:11
32,44:8
32,45:5
33,1:12
33,2:7
33,3:5
33,4:2
33,5:12
33,6:5
33,7:5
33,8:2
33,9:2
33,10:12
33,11:4
33,12:2
33,13:4
33,14:4
33,15:4
33,16:7
33,17:1
33,18:7
33,19:2
33,20:1
33,21:7
33,22:10
33,23:9
33,24:10
33,25:4
33,26:9
33,29:12
33,30:5
33,31:11
33,32:2
33,34:10
33,36:1
33,37:4
33,38:9
33,39:9
33,40:4
33,41:4
33,42:9
33,44:10
34,1:22
34,2:17
34,4:12
34,5:2
34,6:15
34,7:15
34,8:12
34,9:8
34,10:22
34,11:14
34,12:8
34,13:14
34,14:6
34,15:14
34,16:3
34,17:11
34,18:17
34,19:8
34,20:11
34,21:3
34,23:19
34,25:14
34,26:19
34,28:8
34,29:2
34,31:21
34,32:8
34,33:10
34,35:10
34,36:9
35,1:12
35,2:7
35,3:5
35,4:2
35,5:12
35,6:5
35,7:5
35,8:2
35,9:2
35,10:12
35,11:4
35,12:2
35,13:4
35,14:4
35,15:4
35,16:7
35,17:1
35,18:7
35,19:2
35,20:1
35,21:7
35,22:10
35,23:9
35,24:10
35,25:4
35,26:9
35,29:12
35,30:5
35,31:11
35,32:2
35,34:10
35,36:1
35,37:4
35,38:9
35,39:9
35,40:4
35,41:4
35,42:9
35,43:9
35,44:10
36,2:8
36,4:3
36,7:6
36,8:3
36,10:13
36,25:5
36,28:1
36,32:1
36,33:1
36,35:1
36,37:5
36,38:10
36,44:9
37,2:3
37,4:2
37,7:1
37,8:2
37,10:8
37,28:6
37,32:6
37,33:4
37,35:4
37,38:5
37,39:5
37,44:14
38,4:7
38,7:4
38,8:7
38,10:3
38,28:11
38,32:11
38,33:9
38,35:9
38,37:5
38,40:5
38,41:5
38,44:19
38,45:16
38,46:1
38,47:10
38,48:12
38,49:1
38,50:1
38,51:10
38,52:10
39,2:2
39,4:7
39,7:4
39,8:7
39,10:3
39,25:5
39,28:11
39,32:11
39,33:9
39,35:9
39,40:5
39,41:5
39,44:19
40,2:3
40,4:2
40,7:1
40,8:2
40,10:8
40,28:6
40,32:6
40,33:4
40,35:4
40,38:5
40,39:5
40,42:5
40,43:5
40,44:14
41,2:3
41,4:2
41,7:1
41,8:2
41,10:8
41,28:6
41,32:6
41,33:4
41,35:4
41,38:5
41,39:5
41,42:5
41,44:14
42,2:2
42,4:7
42,7:4
42,8:7
42,10:3
42,25:5
42,28:11
42,32:11
42,33:9
42,35:9
42,40:5
42,44:19
43,2:2
43,4:7
43,8:7
43,10:3
43,25:5
43,32:11
43,44:19
43,45:16
44,2:17
44,4:12
44,5:2
44,6:15
44,7:15
44,10:22
44,16:3
44,18:17
44,19:8
44,23:19
44,25:14
44,26:19
44,27:10
44,28:8
44,29:2
44,30:15
44,31:21
44,32:8
44,33:10
44,35:10
44,36:9
44,37:14
44,38:19
44,39:19
44,40:14
44,41:14
44,42:19
44,43:19
44,45:3
45,2:14
45,4:9
45,10:19
45,25:11
45,38:16
45,46:15
45,48:4
45,49:15
46,2:1
46,4:6
46,10:4
46,25:4
46,38:1
46,47:9
46,48:11
47,2:8
47,4:3
47,10:13
47,25:5
47,38:10
47,48:2
47,49:9
47,50:9
48,2:10
48,4:5
48,10:15
48,25:7
48,38:12
48,46:11
48,47:2
48,49:11
48,50:11
48,51:2
48,52:2
48,54:5
48,55:10
48,56:5
49,2:1
49,4:6
49,10:4
49,25:4
49,38:1
49,47:9
49,48:11
49,51:9
49,52:9
49,53:11
49,54:16
49,55:21
49,56:16
49,57:21
49,58:21
50,2:1
50,4:6
50,10:4
50,25:4
50,38:1
50,47:9
50,48:11
50,51:9
50,52:9
50,53:11
50,54:16
50,55:21
50,56:16
50,57:21
50,58:21
51,2:8
51,4:3
51,10:13
51,25:5
51,38:10
51,48:2
51,49:9
51,50:9
52,4:3
52,10:13
52,48:2
52,49:9
52,50:9
52,53:2
53,4:5
53,10:15
53,49:11
53,50:11
53,54:5
54,4:10
54,10:20
54,48:5
54,49:16
54,50:16
54,55:5
55,4:15
55,10:25
55,49:21
55,50:21
55,56:5
56,4:10
56,10:20
56,48:5
56,49:16
56,50:16
56,55:5
56,57:5
57,4:15
57,10:25
57,49:21
57,50:21
58,4:15
58,10:25

<setup times backward>
1,2:5
1,3:7
1,4:10
1,5:24
1,6:7
1,7:7
1,8:10
1,12:14
1,16:19
1,18:5
1,19:14
1,22:22
1,23:3
1,24:22
1,27:12
1,28:14
1,30:7
1,32:14
1,33:12
1,34:22
1,35:12
2,3:2
2,4:5
2,5:19
2,6:2
2,7:2
2,8:5
2,9:9
2,11:3
2,12:9
2,13:3
2,14:11
2,15:3
2,16:14
2,17:6
2,19:9
2,20:6
2,21:14
2,22:17
2,24:17
2,27:7
2,28:9
2,29:19
2,30:2
2,32:9
2,33:7
2,34:17
2,35:7
2,36:8
2,37:3
2,40:3
2,41:3
2,44:17
2,45:14
2,47:8
2,48:10
2,51:8
3,4:3
3,5:17
3,8:3
3,9:7
3,11:1
3,12:7
3,13:1
3,14:9
3,15:1
3,16:12
3,17:4
3,19:7
3,20:4
3,24:15
3,25:1
3,28:7
3,32:7
3,33:5
3,35:5
4,5:14
4,9:4
4,12:4
4,14:6
4,16:9
4,17:1
4,19:4
4,20:1
4,21:9
4,22:12
4,24:12
4,27:2
4,28:4
4,29:14
4,32:4
4,33:2
4,34:12
4,35:2
4,36:3
4,44:12
4,45:9
4,47:3
4,48:5
4,51:3
4,52:3
4,53:5
4,54:10
4,55:15
4,56:10
4,57:15
4,58:15
6,4:3
6,5:17
6,8:3
6,9:7
6,11:1
6,12:7
6,13:1
6,14:9
6,15:1
6,16:12
6,17:4
6,19:7
6,20:4
6,21:12
6,22:15
6,25:1
6,27:5
6,28:7
6,29:17
6,32:7
6,33:5
6,34:15
6,35:5
6,44:15
7,4:3
7,5:17
7,8:3
7,9:7
7,11:1
7,12:7
7,13:1
7,14:9
7,15:1
7,16:12
7,17:4
7,19:7
7,20:4
7,21:12
7,22:15
7,24:15
7,25:1
7,27:5
7,28:7
7,29:17
7,32:7
7,33:5
7,34:15
7,35:5
7,36:6
7,37:1
7,40:1
7,41:1
7,44:15
8,5:14
8,9:4
8,12:4
8,14:6
8,16:9
8,17:1
8,19:4
8,20:1
8,21:9
8,22:12
8,24:12
8,27:2
8,28:4
8,29:14
8,32:4
8,33:2
8,34:12
8,35:2
8,36:3
9,5:10
9,16:5
9,22:8
9,24:8
9,34:8
10,2:5
10,3:7
10,4:10
10,5:24
10,6:7
10,7:7
10,8:10
10,9:14
10,11:8
10,12:14
10,13:8
10,14:16
10,15:8
10,16:19
10,17:11
10,18:5
10,19:14
10,20:11
10,21:19
10,22:22
10,23:3
10,24:22
10,25:8
10,26:3
10,27:12
10,28:14
10,29:24
10,30:7
10,31:1
10,32:14
10,33:12
10,34:22
10,35:12
10,36:13
10,37:8
10,38:3
10,39:3
10,40:8
10,41:8
10,42:3
10,43:3
10,44:22
10,45:19
10,46:4
10,47:13
10,48:15
10,49:4
10,50:4
10,51:13
10,52:13
10,53:15
10,54:20
10,55:25
10,56:20
10,57:25
10,58:25
11,4:2
11,5:16
11,8:2
11,9:6
11,12:6
11,16:11
11,19:6
11,22:14
11,24:14
11,27:4
11,28:6
11,32:6
11,33:4
11,34:14
11,35:4
12,5:10
12,14:2
12,16:5
12,22:8
12,24:8
12,34:8
13,4:2
13,5:16
13,8:2
13,9:6
13,12:6
13,14:8
13,16:11
13,19:6
13,22:14
13,24:14
13,27:4
13,28:6
13,32:6
13,33:4
13,34:14
13,35:4
14,5:8
14,16:3
14,22:6
14,24:6
14,34:6
15,4:2
15,5:16
15,8:2
15,9:6
15,12:6
15,14:8
15,16:11
15,19:6
15,22:14
15,24:14
15,27:4
15,28:6
15,32:6
15,33:4
15,34:14
15,35:4
16,5:5
16,22:3
16,24:3
16,29:5
16,34:3
16,44:3
17,5:13
17,9:3
17,12:3
17,14:5
17,16:8
17,19:3
17,22:11
17,24:11
17,27:1
17,28:3
17,32:3
17,33:1
17,34:11
17,35:1
18,3:2
18,4:5
18,5:19
18,6:2
18,7:2
18,8:5
18,9:9
18,11:3
18,12:9
18,13:3
18,14:11
18,15:3
18,16:14
18,17:6
18,20:6
18,21:14
18,22:17
18,24:17
18,25:3
18,27:7
18,28:9
18,29:19
18,30:2
18,32:9
18,33:7
18,34:17
18,35:7
18,44:17
19,5:10
19,14:2
19,16:5
19,21:5
19,22:8
19,24:8
19,29:10
19,34:8
19,44:8
20,5:13
20,9:3
20,12:3
20,14:5
20,16:8
20,19:3
20,22:11
20,24:11
20,27:1
20,28:3
20,32:3
20,33:1
20,34:11
20,35:1
21,5:5
21,22:3
21,24:3
21,34:3
22,5:2
22,29:2
23,2:2
23,3:4
23,4:7
23,5:21
23,6:4
23,7:4
23,8:7
23,9:11
23,11:5
23,12:11
23,13:5
23,14:13
23,15:5
23,16:16
23,17:8
23,18:2
23,19:11
23,20:8
23,21:16
23,22:19
23,24:19
23,25:5
23,27:9
23,28:11
23,29:21
23,30:4
23,32:11
23,33:9
23,34:19
23,35:9
23,44:19
24,5:2
24,29:2
25,4:2
25,5:16
25,8:2
25,9:6
25,12:6
25,14:8
25,16:11
25,17:3
25,19:6
25,20:3
25,21:11
25,22:14
25,24:14
25,27:4
25,28:6
25,29:16
25,32:6
25,33:4
25,34:14
25,35:4
25,36:5
25,44:14
25,45:11
25,47:5
25,48:7
25,51:5
26,2:2
26,3:4
26,4:7
26,5:21
26,6:4
26,7:4
26,8:7
26,9:11
26,11:5
26,12:11
26,13:5
26,14:13
26,15:5
26,16:16
26,17:8
26,18:2
26,19:11
26,20:8
26,21:16
26,22:19
26,24:19
26,25:5
26,27:9
26,28:11
26,30:4
26,32:11
26,33:9
26,34:19
26,35:9
26,44:19
27,5:12
27,9:2
27,12:2
27,14:4
27,16:7
27,19:2
27,21:7
27,22:10
27,24:10
27,28:2
27,29:12
27,32:2
27,44:10
28,5:10
28,14:2
28,16:5
28,21:5
28,22:8
28,24:8
28,29:10
28,34:8
28,44:8
30,4:3
30,5:17
30,8:3
30,9:7
30,11:1
30,12:7
30,13:1
30,14:9
30,15:1
30,16:12
30,17:4
30,19:7
30,20:4
30,21:12
30,22:15
30,24:15
30,25:1
30,27:5
30,28:7
30,29:17
30,32:7
30,33:5
30,35:5
30,44:15
31,2:4
31,3:6
31,4:9
31,5:23
31,6:6
31,7:6
31,8:9
31,9:13
31,11:7
31,12:13
31,13:7
31,14:15
31,15:7
31,16:18
31,17:10
31,18:4
31,19:13
31,20:10
31,21:18
31,22:21
31,23:2
31,24:21
31,25:7
31,26:2
31,27:11
31,28:13
31,29:23
31,30:6
31,32:13
31,33:11
31,34:21
31,35:11
31,44:21
32,5:10
32,14:2
32,16:5
32,21:5
32,22:8
32,24:8
32,29:10
32,34:8
32,44:8
33,5:12
33,9:2
33,12:2
33,14:4
33,16:7
33,19:2
33,21:7
33,22:10
33,24:10
33,28:2
33,29:12
33,32:2
33,34:10
33,36:1
33,44:10
34,5:2
34,29:2
35,5:12
35,9:2
35,12:2
35,14:4
35,16:7
35,19:2
35,21:7
35,22:10
35,24:10
35,28:2
35,29:12
35,32:2
35,34:10
35,36:1
35,44:10
36,5:11
36,9:1
36,12:1
36,14:3
36,16:6
36,19:1
36,21:6
36,22:9
36,24:9
36,28:1
36,29:11
36,32:1
36,34:9
36,44:9
37,4:2
37,5:16
37,8:2
37,9:6
37,12:6
37,14:8
37,16:11
37,17:3
37,19:6
37,20:3
37,21:11
37,22:14
37,24:14
37,27:4
37,28:6
37,29:16
37,32:6
37,33:4
37,34:14
37,35:4
37,36:5
37,44:14
38,2:2
38,3:4
38,4:7
38,5:21
38,6:4
38,7:4
38,8:7
38,9:11
38,11:5
38,12:11
38,13:5
38,14:13
38,15:5
38,16:16
38,17:8
38,18:2
38,19:11
38,20:8
38,21:16
38,22:19
38,24:19
38,25:5
38,27:9
38,28:11
38,29:21
38,30:4
38,32:11
38,33:9
38,34:19
38,35:9
38,36:10
38,37:5
38,40:5
38,41:5
38,44:19
38,45:16
38,46:1
38,47:10
38,48:12
38,49:1
38,50:1
38,51:10
39,2:2
39,3:4
39,4:7
39,5:21
39,6:4
39,7:4
39,8:7
39,9:11
39,11:5
39,12:11
39,13:5
39,14:13
39,15:5
39,16:16
39,17:8
39,18:2
39,19:11
39,20:8
39,21:16
39,22:19
39,24:19
39,25:5
39,27:9
39,28:11
39,29:21
39,30:4
39,32:11
39,33:9
39,34:19
39,35:9
39,36:10
39,37:5
39,40:5
39,41:5
39,44:19
40,4:2
40,5:16
40,8:2
40,9:6
40,12:6
40,14:8
40,16:11
40,17:3
40,19:6
40,20:3
40,21:11
40,22:14
40,24:14
40,27:4
40,28:6
40,29:16
40,32:6
40,33:4
40,34:14
40,35:4
40,36:5
40,44:14
41,4:2
41,5:16
41,8:2
41,9:6
41,12:6
41,14:8
41,16:11
41,17:3
41,19:6
41,20:3
41,21:11
41,22:14
41,24:14
41,27:4
41,28:6
41,29:16
41,32:6
41,33:4
41,34:14
41,35:4
41,36:5
41,44:14
42,2:2
42,3:4
42,4:7
42,5:21
42,6:4
42,7:4
42,8:7
42,9:11
42,11:5
42,12:11
42,13:5
42,14:13
42,15:5
42,16:16
42,17:8
42,18:2
42,19:11
42,20:8
42,21:16
42,22:19
42,24:19
42,25:5
42,27:9
42,28:11
42,29:21
42,30:4
42,32:11
42,33:9
42,34:19
42,35:9
42,36:10
42,37:5
42,40:5
42,41:5
42,44:19
43,2:2
43,3:4
43,4:7
43,5:21
43,6:4
43,7:4
43,8:7
43,9:11
43,11:5
43,12:11
43,13:5
43,14:13
43,15:5
43,16:16
43,17:8
43,18:2
43,19:11
43,20:8
43,21:16
43,22:19
43,24:19
43,25:5
43,27:9
43,28:11
43,29:21
43,30:4
43,32:11
43,33:9
43,34:19
43,35:9
43,36:10
43,37:5
43,40:5
43,41:5
43,44:19
44,5:2
44,29:2
45,5:5
45,22:3
45,24:3
45,29:5
45,34:3
45,44:3
46,2:1
46,3:3
46,4:6
46,5:20
46,6:3
46,7:3
46,8:6
46,9:10
46,11:4
46,12:10
46,13:4
46,14:12
46,15:4
46,16:15
46,17:7
46,18:1
46,19:10
46,20:7
46,21:15
46,22:18
46,24:18
46,25:4
46,27:8
46,28:10
46,29:20
46,30:3
46,32:10
46,33:8
46,34:18
46,35:8
46,36:9
46,37:4
46,40:4
46,41:4
46,44:18
46,45:15
46,48:11
47,5:11
47,9:1
47,12:1
47,14:3
47,16:6
47,19:1
47,21:6
47,22:9
47,24:9
47,28:1
47,29:11
47,32:1
47,34:9
47,44:9
47,45:6
47,48:2
48,5:9
48,14:1
48,16:4
48,21:4
48,22:7
48,24:7
48,29:9
48,34:7
48,44:7
48,45:4
48,54:5
48,56:5
49,2:1
49,3:3
49,4:6
49,5:20
49,6:3
49,7:3
49,8:6
49,9:10
49,11:4
49,12:10
49,13:4
49,14:12
49,15:4
49,16:15
49,17:7
49,18:1
49,19:10
49,20:7
49,21:15
49,22:18
49,24:18
49,25:4
49,27:8
49,28:10
49,29:20
49,30:3
49,32:10
49,33:8
49,34:18
49,35:8
49,36:9
49,37:4
49,40:4
49,41:4
49,44:18
49,45:15
49,47:9
49,48:11
49,51:9
49,52:9
49,53:11
49,54:16
49,55:21
49,56:16
49,57:21
50,2:1
50,3:3
50,4:6
50,5:20
50,6:3
50,7:3
50,8:6
50,9:10
50,11:4
50,12:10
50,13:4
50,14:12
50,15:4
50,16:15
50,17:7
50,18:1
50,19:10
50,20:7
50,21:15
50,22:18
50,24:18
50,25:4
50,27:8
50,28:10
50,29:20
50,30:3
50,32:10
50,33:8
50,34:18
50,35:8
50,36:9
50,37:4
50,40:4
50,41:4
50,44:18
50,45:15
50,47:9
50,48:11
50,51:9
50,52:9
50,53:11
50,54:16
50,55:21
50,56:16
50,57:21
51,5:11
51,9:1
51,12:1
51,14:3
51,16:6
51,19:1
51,21:6
51,22:9
51,24:9
51,28:1
51,29:11
51,32:1
51,34:9
51,44:9
51,45:6
51,48:2
52,5:11
52,9:1
52,12:1
52,14:3
52,16:6
52,19:1
52,21:6
52,22:9
52,24:9
52,28:1
52,29:11
52,32:1
52,34:9
52,44:9
52,45:6
52,48:2
53,5:9
53,14:1
53,16:4
53,21:4
53,22:7
53,24:7
53,29:9
53,34:7
53,44:7
53,45:4
54,5:4
54,22:2
54,24:2
54,29:4
54,34:2
54,44:2
56,5:4
56,22:2
56,24:2
56,29:4
56,34:2
56,44:2
56,55:5

<end>

<optimal SALBP-1 value>
27


<rand seed>
467321153

<Lower Bounds>
Lm1=25
Lms1=25
Lm2=24
Lm3=24
Lm4=25
Best=25

<Optimal Stations (Iterations: 10)>
37
